BAYES
5
2 2 2 2 2
5
1 0
1 1
1 2
1 3
5 0 1 2 3 4

2
 0.427 0.573
2
 0.612 0.388
2
 0.314 0.686
2
 0.497 0.503
32
 0.424 0.576
 0.568 0.432
 0.552 0.448
 0.663 0.337
 0.424 0.576
 0.568 0.432
 0.552 0.448
 0.663 0.337
 0.424 0.576
 0.568 0.432
 0.552 0.448
 0.663 0.337
 0.424 0.576
 0.568 0.432
 0.552 0.448
 0.663 0.337